objective value:                                11464
t_x_0                                               1 	(obj:31)
t_x_2                                               1 	(obj:49)
t_x_3                                               1 	(obj:16)
t_x_10                                              1 	(obj:16)
t_x_12                                              1 	(obj:1)
t_x_17                                              1 	(obj:2)
t_x_18                                              1 	(obj:3)
t_x_22                                              1 	(obj:24)
t_x_25                                              1 	(obj:45)
t_x_32                                              1 	(obj:12)
t_x_36                                              1 	(obj:16)
t_x_41                                              1 	(obj:15)
t_x_42                                              1 	(obj:62)
t_x_50                                              1 	(obj:19)
t_x_52                                              1 	(obj:24)
t_x_53                                              1 	(obj:35)
t_x_55                                              1 	(obj:6)
t_x_56                                              1 	(obj:17)
t_x_60                                              1 	(obj:40)
t_x_61                                              1 	(obj:9)
t_x_66                                              1 	(obj:28)
t_x_67                                              1 	(obj:16)
t_x_70                                              1 	(obj:57)
t_x_73                                              1 	(obj:4)
t_x_76                                              1 	(obj:27)
t_x_77                                              1 	(obj:2)
t_x_79                                              1 	(obj:35)
t_x_80                                              1 	(obj:44)
t_x_84                                              1 	(obj:30)
t_x_87                                              1 	(obj:1)
t_x_88                                              1 	(obj:14)
t_x_89                                              1 	(obj:10)
t_x_91                                              1 	(obj:2)
t_x_94                                              1 	(obj:72)
t_x_95                                              1 	(obj:13)
t_x_96                                              1 	(obj:31)
t_x_97                                              1 	(obj:0)
t_x_98                                              1 	(obj:25)
t_x_110                                             1 	(obj:20)
t_x_112                                             1 	(obj:0)
t_x_119                                             1 	(obj:34)
t_x_121                                             1 	(obj:8)
t_x_125                                             1 	(obj:37)
t_x_127                                             1 	(obj:4)
t_x_130                                             1 	(obj:31)
t_x_132                                             1 	(obj:6)
t_x_133                                             1 	(obj:15)
t_x_136                                             1 	(obj:6)
t_x_146                                             1 	(obj:11)
t_x_153                                             1 	(obj:38)
t_x_157                                             1 	(obj:0)
t_x_158                                             1 	(obj:25)
t_x_161                                             1 	(obj:11)
t_x_166                                             1 	(obj:20)
t_x_176                                             1 	(obj:0)
t_x_177                                             1 	(obj:43)
t_x_180                                             1 	(obj:26)
t_x_181                                             1 	(obj:2)
t_x_183                                             1 	(obj:23)
t_x_184                                             1 	(obj:14)
t_x_186                                             1 	(obj:10)
t_x_187                                             1 	(obj:10)
t_x_195                                             1 	(obj:3)
t_x_196                                             1 	(obj:26)
t_x_197                                             1 	(obj:11)
t_x_198                                             1 	(obj:0)
t_x_203                                             1 	(obj:16)
t_x_205                                             1 	(obj:26)
t_x_213                                             1 	(obj:54)
t_x_214                                             1 	(obj:17)
t_x_219                                             1 	(obj:25)
t_x_220                                             1 	(obj:19)
t_x_224                                             1 	(obj:4)
t_x_226                                             1 	(obj:47)
t_x_230                                             1 	(obj:4)
t_x_232                                             1 	(obj:1)
t_x_233                                             1 	(obj:35)
t_x_237                                             1 	(obj:22)
t_x_240                                             1 	(obj:15)
t_x_245                                             1 	(obj:25)
t_x_246                                             1 	(obj:35)
t_x_247                                             1 	(obj:5)
t_x_249                                             1 	(obj:14)
t_x_250                                             1 	(obj:38)
t_x_254                                             1 	(obj:4)
t_x_256                                             1 	(obj:5)
t_x_260                                             1 	(obj:10)
t_x_261                                             1 	(obj:26)
t_x_269                                             1 	(obj:31)
t_x_275                                             1 	(obj:1)
t_x_280                                             1 	(obj:14)
t_x_284                                             1 	(obj:6)
t_x_291                                             1 	(obj:17)
t_x_300                                             1 	(obj:22)
t_x_301                                             1 	(obj:28)
t_x_302                                             1 	(obj:5)
t_x_305                                             1 	(obj:5)
t_x_306                                             1 	(obj:21)
t_x_307                                             1 	(obj:15)
t_x_313                                             1 	(obj:1)
t_x_317                                             1 	(obj:32)
t_x_319                                             1 	(obj:14)
t_x_324                                             1 	(obj:21)
t_x_327                                             1 	(obj:16)
t_x_331                                             1 	(obj:2)
t_x_332                                             1 	(obj:19)
t_x_333                                             1 	(obj:33)
t_x_338                                             1 	(obj:27)
t_x_344                                             1 	(obj:3)
t_x_354                                             1 	(obj:3)
t_x_367                                             1 	(obj:10)
t_x_368                                             1 	(obj:10)
t_x_372                                             1 	(obj:27)
t_x_376                                             1 	(obj:3)
t_x_378                                             1 	(obj:53)
t_x_379                                             1 	(obj:24)
t_x_380                                             1 	(obj:15)
t_x_383                                             1 	(obj:34)
t_x_388                                             1 	(obj:14)
t_x_396                                             1 	(obj:9)
t_x_397                                             1 	(obj:29)
t_x_398                                             1 	(obj:37)
t_x_402                                             1 	(obj:79)
t_x_412                                             1 	(obj:17)
t_x_425                                             1 	(obj:16)
t_x_427                                             1 	(obj:3)
t_x_429                                             1 	(obj:71)
t_x_431                                             1 	(obj:34)
t_x_441                                             1 	(obj:3)
t_x_442                                             1 	(obj:16)
t_x_444                                             1 	(obj:0)
t_x_446                                             1 	(obj:30)
t_x_450                                             1 	(obj:21)
t_x_459                                             1 	(obj:8)
t_x_463                                             1 	(obj:16)
t_x_465                                             1 	(obj:10)
t_x_466                                             1 	(obj:1)
t_x_469                                             1 	(obj:14)
t_x_471                                             1 	(obj:1)
t_x_473                                             1 	(obj:19)
t_x_478                                             1 	(obj:35)
t_x_480                                             1 	(obj:50)
t_x_481                                             1 	(obj:10)
t_x_482                                             1 	(obj:8)
t_x_483                                             1 	(obj:13)
t_x_486                                             1 	(obj:57)
t_x_493                                             1 	(obj:23)
t_x_499                                             1 	(obj:0)
t_x_500                                             1 	(obj:0)
t_x_503                                             1 	(obj:29)
t_x_505                                             1 	(obj:16)
t_x_509                                             1 	(obj:9)
t_x_514                                             1 	(obj:4)
t_x_515                                             1 	(obj:14)
t_x_518                                             1 	(obj:15)
t_x_524                                             1 	(obj:12)
t_x_526                                             1 	(obj:64)
t_x_528                                             1 	(obj:10)
t_x_529                                             1 	(obj:5)
t_x_531                                             1 	(obj:21)
t_x_532                                             1 	(obj:36)
t_x_539                                             1 	(obj:48)
t_x_540                                             1 	(obj:17)
t_x_543                                             1 	(obj:26)
t_x_545                                             1 	(obj:30)
t_x_547                                             1 	(obj:29)
t_x_548                                             1 	(obj:6)
t_x_549                                             1 	(obj:9)
t_x_550                                             1 	(obj:15)
t_x_554                                             1 	(obj:11)
t_x_560                                             1 	(obj:4)
t_x_562                                             1 	(obj:56)
t_x_563                                             1 	(obj:50)
t_x_564                                             1 	(obj:13)
t_x_568                                             1 	(obj:3)
t_x_571                                             1 	(obj:35)
t_x_572                                             1 	(obj:37)
t_x_574                                             1 	(obj:25)
t_x_578                                             1 	(obj:24)
t_x_582                                             1 	(obj:0)
t_x_588                                             1 	(obj:4)
t_x_591                                             1 	(obj:39)
t_x_594                                             1 	(obj:6)
t_x_596                                             1 	(obj:9)
t_x_600                                             1 	(obj:36)
t_x_602                                             1 	(obj:32)
t_x_609                                             1 	(obj:37)
t_x_614                                             1 	(obj:60)
t_x_616                                             1 	(obj:19)
t_x_618                                             1 	(obj:6)
t_x_619                                             1 	(obj:10)
t_x_627                                             1 	(obj:5)
t_x_633                                             1 	(obj:8)
t_x_638                                             1 	(obj:9)
t_x_642                                             1 	(obj:4)
t_x_644                                             1 	(obj:31)
t_x_646                                             1 	(obj:22)
t_x_649                                             1 	(obj:3)
t_x_657                                             1 	(obj:10)
t_x_663                                             1 	(obj:10)
t_x_664                                             1 	(obj:11)
t_x_665                                             1 	(obj:25)
t_x_666                                             1 	(obj:8)
t_x_670                                             1 	(obj:10)
t_x_683                                             1 	(obj:25)
t_x_684                                             1 	(obj:9)
t_x_688                                             1 	(obj:14)
t_x_689                                             1 	(obj:16)
t_x_693                                             1 	(obj:17)
t_x_696                                             1 	(obj:15)
t_x_702                                             1 	(obj:4)
t_x_704                                             1 	(obj:15)
t_x_708                                             1 	(obj:3)
t_x_709                                             1 	(obj:13)
t_x_710                                             1 	(obj:17)
t_x_715                                             1 	(obj:21)
t_x_722                                             1 	(obj:37)
t_x_724                                             1 	(obj:27)
t_x_731                                             1 	(obj:9)
t_x_733                                             1 	(obj:48)
t_x_734                                             1 	(obj:20)
t_x_735                                             1 	(obj:31)
t_x_738                                             1 	(obj:26)
t_x_739                                             1 	(obj:31)
t_x_749                                             1 	(obj:14)
t_x_753                                             1 	(obj:22)
t_x_757                                             1 	(obj:37)
t_x_758                                             1 	(obj:47)
t_x_764                                             1 	(obj:25)
t_x_765                                             1 	(obj:13)
t_x_771                                             1 	(obj:12)
t_x_772                                             1 	(obj:1)
t_x_777                                             1 	(obj:39)
t_x_779                                             1 	(obj:35)
t_x_785                                             1 	(obj:44)
t_x_786                                             1 	(obj:16)
t_x_787                                             1 	(obj:19)
t_x_793                                             1 	(obj:0)
t_x_811                                             1 	(obj:13)
t_x_814                                             1 	(obj:7)
t_x_816                                             1 	(obj:2)
t_x_820                                             1 	(obj:42)
t_x_822                                             1 	(obj:13)
t_x_824                                             1 	(obj:36)
t_x_827                                             1 	(obj:9)
t_x_828                                             1 	(obj:6)
t_x_830                                             1 	(obj:10)
t_x_838                                             1 	(obj:59)
t_x_842                                             1 	(obj:19)
t_x_844                                             1 	(obj:42)
t_x_853                                             1 	(obj:16)
t_x_858                                             1 	(obj:12)
t_x_859                                             1 	(obj:34)
t_x_860                                             1 	(obj:31)
t_x_861                                             1 	(obj:10)
t_x_864                                             1 	(obj:0)
t_x_865                                             1 	(obj:66)
t_x_868                                             1 	(obj:20)
t_x_869                                             1 	(obj:4)
t_x_876                                             1 	(obj:36)
t_x_880                                             1 	(obj:6)
t_x_881                                             1 	(obj:10)
t_x_883                                             1 	(obj:8)
t_x_890                                             1 	(obj:0)
t_x_891                                             1 	(obj:10)
t_x_894                                             1 	(obj:5)
t_x_896                                             1 	(obj:53)
t_x_897                                             1 	(obj:23)
t_x_903                                             1 	(obj:19)
t_x_913                                             1 	(obj:17)
t_x_915                                             1 	(obj:20)
t_x_919                                             1 	(obj:0)
t_x_920                                             1 	(obj:0)
t_x_921                                             1 	(obj:20)
t_x_926                                             1 	(obj:2)
t_x_935                                             1 	(obj:1)
t_x_938                                             1 	(obj:5)
t_x_945                                             1 	(obj:16)
t_x_948                                             1 	(obj:32)
t_x_950                                             1 	(obj:12)
t_x_951                                             1 	(obj:12)
t_x_956                                             1 	(obj:3)
t_x_957                                             1 	(obj:18)
t_x_958                                             1 	(obj:4)
t_x_959                                             1 	(obj:7)
t_x_963                                             1 	(obj:15)
t_x_969                                             1 	(obj:28)
t_x_972                                             1 	(obj:19)
t_x_977                                             1 	(obj:13)
t_x_979                                             1 	(obj:3)
t_x_981                                             1 	(obj:39)
t_x_982                                             1 	(obj:1)
t_x_983                                             1 	(obj:24)
t_x_989                                             1 	(obj:30)
t_x_995                                             1 	(obj:12)
t_x_1000                                            1 	(obj:23)
t_x_1008                                            1 	(obj:32)
t_x_1009                                            1 	(obj:2)
t_x_1010                                            1 	(obj:26)
t_x_1011                                            1 	(obj:18)
t_x_1017                                            1 	(obj:17)
t_x_1021                                            1 	(obj:0)
t_x_1023                                            1 	(obj:3)
t_x_1024                                            1 	(obj:15)
t_x_1027                                            1 	(obj:11)
t_x_1028                                            1 	(obj:22)
t_x_1032                                            1 	(obj:7)
t_x_1033                                            1 	(obj:1)
t_x_1040                                            1 	(obj:5)
t_x_1041                                            1 	(obj:31)
t_x_1051                                            1 	(obj:36)
t_x_1052                                            1 	(obj:5)
t_x_1053                                            1 	(obj:26)
t_x_1056                                            1 	(obj:20)
t_x_1063                                            1 	(obj:36)
t_x_1064                                            1 	(obj:43)
t_x_1067                                            1 	(obj:5)
t_x_1068                                            1 	(obj:33)
t_x_1072                                            1 	(obj:52)
t_x_1077                                            1 	(obj:16)
t_x_1081                                            1 	(obj:24)
t_x_1082                                            1 	(obj:44)
t_x_1085                                            1 	(obj:0)
t_x_1088                                            1 	(obj:8)
t_x_1092                                            1 	(obj:22)
t_x_1093                                            1 	(obj:13)
t_x_1094                                            1 	(obj:8)
t_x_1095                                            1 	(obj:23)
t_x_1097                                            1 	(obj:3)
t_x_1098                                            1 	(obj:2)
t_x_1102                                            1 	(obj:28)
t_x_1107                                            1 	(obj:17)
t_x_1108                                            1 	(obj:12)
t_x_1109                                            1 	(obj:18)
t_x_1110                                            1 	(obj:31)
t_x_1113                                            1 	(obj:5)
t_x_1121                                            1 	(obj:18)
t_x_1124                                            1 	(obj:30)
t_x_1128                                            1 	(obj:70)
t_x_1137                                            1 	(obj:3)
t_x_1138                                            1 	(obj:21)
t_x_1139                                            1 	(obj:2)
t_x_1140                                            1 	(obj:17)
t_x_1141                                            1 	(obj:2)
t_x_1143                                            1 	(obj:29)
t_x_1144                                            1 	(obj:19)
t_x_1146                                            1 	(obj:15)
t_x_1147                                            1 	(obj:17)
t_x_1149                                            1 	(obj:20)
t_x_1152                                            1 	(obj:29)
t_x_1154                                            1 	(obj:3)
t_x_1157                                            1 	(obj:18)
t_x_1159                                            1 	(obj:0)
t_x_1161                                            1 	(obj:14)
t_x_1172                                            1 	(obj:10)
t_x_1183                                            1 	(obj:14)
t_x_1185                                            1 	(obj:30)
t_x_1189                                            1 	(obj:48)
t_x_1192                                            1 	(obj:19)
t_x_1194                                            1 	(obj:28)
t_x_1197                                            1 	(obj:18)
t_x_1205                                            1 	(obj:2)
t_x_1209                                            1 	(obj:15)
t_x_1214                                            1 	(obj:17)
t_x_1218                                            1 	(obj:2)
t_x_1219                                            1 	(obj:11)
t_x_1223                                            1 	(obj:20)
t_x_1229                                            1 	(obj:1)
t_x_1232                                            1 	(obj:4)
t_x_1242                                            1 	(obj:10)
t_x_1248                                            1 	(obj:32)
t_x_1250                                            1 	(obj:37)
t_x_1260                                            1 	(obj:44)
t_x_1261                                            1 	(obj:12)
t_x_1265                                            1 	(obj:1)
t_x_1277                                            1 	(obj:7)
t_x_1279                                            1 	(obj:0)
t_x_1283                                            1 	(obj:3)
t_x_1284                                            1 	(obj:2)
t_x_1297                                            1 	(obj:9)
t_x_1298                                            1 	(obj:3)
t_x_1300                                            1 	(obj:1)
t_x_1301                                            1 	(obj:21)
t_x_1309                                            1 	(obj:28)
t_x_1313                                            1 	(obj:16)
t_x_1316                                            1 	(obj:22)
t_x_1318                                            1 	(obj:12)
t_x_1322                                            1 	(obj:18)
t_x_1324                                            1 	(obj:20)
t_x_1326                                            1 	(obj:34)
t_x_1327                                            1 	(obj:39)
t_x_1336                                            1 	(obj:3)
t_x_1342                                            1 	(obj:13)
t_x_1344                                            1 	(obj:8)
t_x_1347                                            1 	(obj:30)
t_x_1350                                            1 	(obj:58)
t_x_1352                                            1 	(obj:1)
t_x_1358                                            1 	(obj:31)
t_x_1360                                            1 	(obj:8)
t_x_1362                                            1 	(obj:0)
t_x_1367                                            1 	(obj:26)
t_x_1368                                            1 	(obj:22)
t_x_1370                                            1 	(obj:11)
t_x_1376                                            1 	(obj:34)
t_x_1379                                            1 	(obj:46)
t_x_1380                                            1 	(obj:20)
t_x_1386                                            1 	(obj:30)
t_x_1388                                            1 	(obj:21)
t_x_1391                                            1 	(obj:0)
t_x_1394                                            1 	(obj:7)
t_x_1396                                            1 	(obj:31)
t_x_1399                                            1 	(obj:24)
t_x_1401                                            1 	(obj:23)
t_x_1407                                            1 	(obj:61)
t_x_1408                                            1 	(obj:3)
t_x_1409                                            1 	(obj:1)
t_x_1410                                            1 	(obj:15)
t_x_1412                                            1 	(obj:6)
t_x_1416                                            1 	(obj:0)
t_x_1417                                            1 	(obj:11)
t_x_1419                                            1 	(obj:12)
t_x_1423                                            1 	(obj:12)
t_x_1424                                            1 	(obj:12)
t_x_1425                                            1 	(obj:20)
t_x_1426                                            1 	(obj:8)
t_x_1433                                            1 	(obj:6)
t_x_1437                                            1 	(obj:4)
t_x_1439                                            1 	(obj:20)
t_x_1445                                            1 	(obj:22)
t_x_1446                                            1 	(obj:15)
t_x_1450                                            1 	(obj:49)
t_x_1452                                            1 	(obj:37)
t_x_1454                                            1 	(obj:26)
t_x_1458                                            1 	(obj:36)
t_x_1463                                            1 	(obj:47)
t_x_1464                                            1 	(obj:10)
t_x_1466                                            1 	(obj:34)
t_x_1467                                            1 	(obj:2)
t_x_1468                                            1 	(obj:12)
t_x_1471                                            1 	(obj:15)
t_x_1474                                            1 	(obj:40)
t_x_1475                                            1 	(obj:50)
t_x_1479                                            1 	(obj:13)
t_x_1482                                            1 	(obj:18)
t_x_1483                                            1 	(obj:43)
t_x_1485                                            1 	(obj:14)
t_x_1486                                            1 	(obj:8)
t_x_1488                                            1 	(obj:9)
t_x_1491                                            1 	(obj:20)
t_x_1496                                            1 	(obj:2)
t_x_1497                                            1 	(obj:25)
t_x_1504                                            1 	(obj:19)
t_x_1506                                            1 	(obj:12)
t_x_1507                                            1 	(obj:12)
t_x_1513                                            1 	(obj:12)
t_x_1522                                            1 	(obj:9)
t_x_1535                                            1 	(obj:16)
t_x_1545                                            1 	(obj:4)
t_x_1546                                            1 	(obj:4)
t_x_1554                                            1 	(obj:3)
t_x_1555                                            1 	(obj:41)
t_x_1556                                            1 	(obj:22)
t_x_1559                                            1 	(obj:11)
t_x_1561                                            1 	(obj:1)
t_x_1564                                            1 	(obj:51)
t_x_1574                                            1 	(obj:29)
t_x_1575                                            1 	(obj:3)
t_x_1578                                            1 	(obj:40)
t_x_1580                                            1 	(obj:7)
t_x_1582                                            1 	(obj:3)
t_x_1593                                            1 	(obj:11)
t_x_1594                                            1 	(obj:18)
t_x_1601                                            1 	(obj:60)
t_x_1604                                            1 	(obj:28)
t_x_1605                                            1 	(obj:2)
t_x_1607                                            1 	(obj:3)
t_x_1608                                            1 	(obj:34)
t_x_1610                                            1 	(obj:13)
t_x_1611                                            1 	(obj:10)
t_x_1612                                            1 	(obj:13)
t_x_1614                                            1 	(obj:6)
t_x_1619                                            1 	(obj:0)
t_x_1623                                            1 	(obj:25)
t_x_1626                                            1 	(obj:14)
t_x_1627                                            1 	(obj:91)
t_x_1631                                            1 	(obj:36)
t_x_1633                                            1 	(obj:22)
t_x_1636                                            1 	(obj:5)
t_x_1637                                            1 	(obj:14)
t_x_1640                                            1 	(obj:58)
t_x_1641                                            1 	(obj:23)
t_x_1642                                            1 	(obj:17)
t_x_1651                                            1 	(obj:19)
t_x_1652                                            1 	(obj:12)
t_x_1654                                            1 	(obj:10)
t_x_1656                                            1 	(obj:8)
t_x_1658                                            1 	(obj:5)
t_x_1659                                            1 	(obj:36)
t_x_1660                                            1 	(obj:4)
t_x_1661                                            1 	(obj:38)
t_x_1664                                            1 	(obj:0)
t_x_1671                                            1 	(obj:16)
t_x_1675                                            1 	(obj:34)
t_x_1678                                            1 	(obj:64)
t_x_1684                                            1 	(obj:37)
t_x_1685                                            1 	(obj:12)
t_x_1686                                            1 	(obj:2)
t_x_1687                                            1 	(obj:31)
t_x_1688                                            1 	(obj:25)
t_x_1691                                            1 	(obj:36)
t_x_1694                                            1 	(obj:10)
t_x_1696                                            1 	(obj:0)
t_x_1698                                            1 	(obj:6)
t_x_1700                                            1 	(obj:0)
t_x_1703                                            1 	(obj:3)
t_x_1704                                            1 	(obj:1)
t_x_1708                                            1 	(obj:17)
t_x_1710                                            1 	(obj:21)
t_x_1711                                            1 	(obj:9)
t_x_1712                                            1 	(obj:11)
t_x_1715                                            1 	(obj:3)
t_x_1719                                            1 	(obj:7)
t_x_1725                                            1 	(obj:33)
t_x_1727                                            1 	(obj:0)
t_x_1728                                            1 	(obj:5)
t_x_1737                                            1 	(obj:27)
t_x_1738                                            1 	(obj:17)
t_x_1740                                            1 	(obj:9)
t_x_1741                                            1 	(obj:22)
t_x_1742                                            1 	(obj:1)
t_x_1744                                            1 	(obj:14)
t_x_1748                                            1 	(obj:25)
t_x_1753                                            1 	(obj:38)
t_x_1755                                            1 	(obj:6)
t_x_1756                                            1 	(obj:7)
t_x_1757                                            1 	(obj:28)
t_x_1758                                            1 	(obj:5)
t_x_1767                                            1 	(obj:19)
t_x_1768                                            1 	(obj:9)
t_x_1771                                            1 	(obj:10)
t_x_1772                                            1 	(obj:14)
t_x_1777                                            1 	(obj:24)
t_x_1780                                            1 	(obj:65)
t_x_1781                                            1 	(obj:21)
t_x_1785                                            1 	(obj:25)
t_x_1790                                            1 	(obj:1)
t_x_1794                                            1 	(obj:9)
t_x_1802                                            1 	(obj:11)
t_x_1803                                            1 	(obj:11)
t_x_1804                                            1 	(obj:36)
t_x_1805                                            1 	(obj:49)
t_x_1807                                            1 	(obj:13)
t_x_1808                                            1 	(obj:20)
t_x_1811                                            1 	(obj:24)
t_x_1813                                            1 	(obj:3)
t_x_1814                                            1 	(obj:6)
t_x_1815                                            1 	(obj:37)
t_x_1819                                            1 	(obj:32)
t_x_1820                                            1 	(obj:0)
t_x_1826                                            1 	(obj:9)
t_x_1833                                            1 	(obj:27)
t_x_1834                                            1 	(obj:16)
t_x_1837                                            1 	(obj:15)
t_x_1841                                            1 	(obj:15)
t_x_1843                                            1 	(obj:31)
t_x_1849                                            1 	(obj:10)
t_x_1853                                            1 	(obj:18)
t_x_1859                                            1 	(obj:2)
t_x_1861                                            1 	(obj:19)
t_x_1862                                            1 	(obj:4)
t_x_1866                                            1 	(obj:43)
t_x_1868                                            1 	(obj:33)
t_x_1871                                            1 	(obj:10)
t_x_1873                                            1 	(obj:11)
t_x_1874                                            1 	(obj:15)
t_x_1879                                            1 	(obj:3)
t_x_1885                                            1 	(obj:21)
t_x_1888                                            1 	(obj:29)
t_x_1894                                            1 	(obj:18)
t_x_1895                                            1 	(obj:37)
t_x_1901                                            1 	(obj:6)
t_x_1909                                            1 	(obj:12)
t_x_1911                                            1 	(obj:12)
t_x_1913                                            1 	(obj:24)
t_x_1914                                            1 	(obj:0)
t_x_1918                                            1 	(obj:23)
t_x_1919                                            1 	(obj:28)
t_x_1931                                            1 	(obj:30)
t_x_1933                                            1 	(obj:14)
t_x_1936                                            1 	(obj:15)
t_x_1937                                            1 	(obj:10)
t_x_1938                                            1 	(obj:23)
t_x_1940                                            1 	(obj:21)
t_x_1942                                            1 	(obj:22)
t_x_1945                                            1 	(obj:12)
t_x_1946                                            1 	(obj:42)
t_x_1952                                            1 	(obj:27)
t_x_1954                                            1 	(obj:3)
t_x_1957                                            1 	(obj:24)
t_x_1961                                            1 	(obj:25)
t_x_1962                                            1 	(obj:7)
t_x_1966                                            1 	(obj:15)
t_x_1967                                            1 	(obj:8)
t_x_1969                                            1 	(obj:3)
t_x_1982                                            1 	(obj:22)
t_x_1983                                            1 	(obj:52)
t_x_1986                                            1 	(obj:11)
t_x_1994                                            1 	(obj:19)
t_x_1997                                            1 	(obj:44)
t_x_1999                                            1 	(obj:31)
